
(set-logic ALL) 

(declare-datatype MyList ((Nil) (Cons (head Real) (tail MyList)) )) 
(declare-fun l0 () MyList) 
(declare-fun l1 () MyList) 
(declare-fun l2 () MyList) 
(declare-fun l3 () MyList) 
(declare-fun i0 () Real) 
(declare-fun i1 () Real) 
(assert (or (= l1 Nil) (is-Nil l1) (is-Nil Nil)) )
(assert (and (is-Nil Nil) (is-Cons Nil) (is-Nil Nil) (= l0 Nil)) )
(assert (is-Nil l0) )
(assert (not (is-Cons Nil)) )
(assert (is-Nil l0) )
(assert (= l0 Nil) )
(assert (= l3 Nil) )
(assert (and (is-Nil Nil) (is-Cons l1) (= l3 Nil)) )
(check-sat)
